projet_m2_wvcp/projet_m2_wvcp/original_wvcp_dzn/zeroin.i.3.clq.dzn
cliques=[{0,4,3,121,2,50,11,9,47,1,12,53,15,44,120,42,13,5,32,6,7,40,60,10,8,14,35},{0,4,3,121,2,50,11,9,47,1,12,53,15,44,120,42,13,5,32,6,7,40,60,10,8,14,35},{0,4,3,121,2,50,11,9,47,1,12,53,15,44,120,42,13,5,32,6,7,40,60,10,8,14,35},{0,4,3,121,2,50,11,9,47,1,12,53,15,44,120,42,13,5,32,6,7,40,60,10,8,14,35},{0,4,3,121,2,50,11,9,47,1,12,53,15,44,120,42,13,5,32,6,7,40,60,10,8,14,35},{0,4,3,121,2,50,11,9,47,1,12,53,15,44,120,42,13,5,32,6,7,40,60,10,8,14,35},{0,4,3,121,2,50,11,9,47,1,12,53,15,44,120,42,13,5,32,6,7,40,60,10,8,14,35},{0,4,3,121,2,50,11,9,47,1,12,53,15,44,120,42,13,5,32,6,7,40,60,10,8,14,35},{0,4,3,121,2,50,11,9,47,1,12,53,15,44,120,42,13,5,32,6,7,40,60,10,8,14,35},{0,4,3,121,2,50,11,9,47,1,12,53,15,44,120,42,13,5,32,6,7,40,60,10,8,14,35},{0,4,3,121,2,50,11,9,47,1,12,53,15,44,120,42,13,5,32,6,7,40,60,10,8,14,35},{0,4,3,121,2,50,11,9,47,1,12,53,15,44,120,42,13,5,32,6,7,40,60,10,8,14,35},{0,4,3,121,2,50,11,9,47,1,12,53,15,44,120,42,13,5,32,6,7,40,60,10,8,14,35},{0,4,3,121,2,50,11,9,47,1,12,53,15,44,120,42,13,5,32,6,7,40,60,10,8,14,35},{0,4,3,121,2,50,11,9,47,1,12,53,15,44,120,42,13,5,32,6,7,40,60,10,8,14,35},{0,4,3,121,2,50,11,9,47,1,12,53,15,44,120,42,13,5,32,6,7,40,60,10,8,14,35},{121,50,47,53,44,120,16,42,32,40,60,35,26},{24,138,137,22,30,136,29,28,31,67,135,18,21,68,16,20,66,25,27,19,139,17,23,26},{24,138,137,22,30,136,29,28,31,67,135,18,21,68,16,20,66,25,27,19,139,17,23,26},{24,138,137,22,30,136,29,28,31,67,135,18,21,68,16,20,66,25,27,19,139,17,23,26},{24,138,137,22,30,136,29,28,31,67,135,18,21,68,16,20,66,25,27,19,139,17,23,26},{24,138,137,22,30,136,29,28,31,67,135,18,21,68,16,20,66,25,27,19,139,17,23,26},{24,138,137,22,30,136,29,28,31,67,135,18,21,68,16,20,66,25,27,19,139,17,23,26},{24,138,137,22,30,136,29,28,31,67,135,18,21,68,16,20,66,25,27,19,139,17,23,26},{24,138,137,22,30,136,29,28,31,67,135,18,21,68,16,20,66,25,27,19,139,17,23,26},{24,138,137,22,30,136,29,28,31,67,135,18,21,68,16,20,66,25,27,19,139,17,23,26},{121,50,47,53,44,120,16,42,32,40,60,35,26},{24,138,137,22,30,136,29,28,31,67,135,18,21,68,16,20,66,25,27,19,139,17,23,26},{24,138,137,22,30,136,29,28,31,67,135,18,21,68,16,20,66,25,27,19,139,17,23,26},{24,138,137,22,30,136,29,28,31,67,135,18,21,68,16,20,66,25,27,19,139,17,23,26},{24,138,137,22,30,136,29,28,31,67,135,18,21,68,16,20,66,25,27,19,139,17,23,26},{24,138,137,22,30,136,29,31,28,67,135,18,21,68,16,20,66,25,27,19,139,17,23,26},{0,4,3,121,2,50,11,9,47,1,12,53,15,44,120,42,13,5,32,6,7,40,60,10,8,14,35},{33},{34},{0,4,3,121,2,50,11,9,47,1,12,53,15,44,120,42,13,5,32,6,7,40,60,10,8,14,35},{36},{37},{38},{39},{0,4,3,121,2,50,11,9,47,1,12,53,15,44,120,42,13,5,32,6,7,40,60,10,8,14,35},{41},{0,4,3,121,2,50,11,9,47,1,12,53,15,44,120,42,13,5,32,6,7,40,60,10,8,14,35},{43},{0,4,3,121,2,50,11,9,47,1,12,53,15,44,120,42,13,5,32,6,7,40,60,10,8,14,35},{45},{0,4,3,46,94,2,50,11,9,47,1,12,15,13,5,32,6,7,10,8,14,35},{0,4,3,121,2,50,11,9,47,1,12,53,15,44,120,42,13,5,32,6,7,40,60,10,8,14,35},{48},{49},{0,4,3,121,2,50,11,9,47,1,12,53,15,44,120,42,13,5,32,6,7,40,60,10,8,14,35},{51},{52},{0,4,3,121,2,50,11,9,47,1,12,53,15,44,120,42,13,5,32,6,7,40,60,10,8,14,35},{54},{0,4,3,2,50,11,198,9,55,1,12,53,15,44,120,42,187,13,5,6,185,194,7,40,60,10,8,14,35},{0,4,3,174,2,50,11,9,56,1,12,166,53,168,15,44,120,42,13,5,6,7,40,60,10,8,14,35},{57},{0,4,3,2,50,11,58,9,47,1,12,53,116,15,44,42,13,5,32,6,7,40,59,115,10,8,14,35},{0,4,3,2,50,11,58,9,47,1,12,53,116,15,44,42,13,5,32,6,7,40,59,115,10,8,14,35},{0,4,3,121,2,50,11,9,47,1,12,53,15,44,120,42,13,5,32,6,7,40,60,10,8,14,35},{0,4,2,11,9,1,12,15,61,13,5,6,7,10,8},{24,22,30,62,29,28,31,18,21,16,20,25,27,19,17,23,26},{24,22,30,29,28,31,18,21,16,20,25,27,19,63,17,23,26},{64,24,22,30,29,28,31,18,21,16,20,25,27,19,17,23,26},{65,24,22,30,29,28,31,18,21,16,20,25,27,19,17,23,26},{24,22,30,82,29,28,31,67,18,21,68,16,80,20,66,25,27,19,78,17,23,26,83},{24,22,30,82,29,28,31,67,18,21,68,16,80,20,66,25,27,19,78,17,23,26,83},{24,22,30,82,29,28,31,67,18,21,68,16,80,20,66,25,27,19,78,17,23,26,83},{0,4,3,2,11,9,1,12,15,13,5,69,6,7,10,8,14},{0,4,3,2,11,9,1,12,15,13,5,70,6,7,10,8,14},{0,4,3,2,11,9,71,1,12,15,13,5,6,7,10,8,14},{0,4,3,2,11,9,1,12,15,13,5,72,6,7,10,8,14},{0,4,3,2,11,9,73,1,12,15,13,5,6,7,10,8,14},{0,4,3,2,11,9,1,12,15,13,5,6,7,74,10,8,14},{0,4,3,2,11,9,1,12,75,15,13,5,6,7,10,8,14},{0,4,3,76,2,11,9,1,12,15,13,5,6,7,10,8,14},{0,4,3,2,11,9,1,12,15,13,5,6,7,10,8,14,77},{24,22,30,82,29,28,31,67,18,21,68,16,80,20,66,25,27,19,78,17,23,26,83},{0,4,3,2,11,9,1,12,15,13,5,79,6,7,10,8,14},{24,22,30,82,29,28,31,67,18,21,68,16,80,20,66,25,27,19,78,17,23,26,83},{0,4,3,81,2,11,9,1,12,15,13,5,6,7,10,8,14},{24,22,30,82,29,28,31,67,18,21,68,16,80,20,66,25,27,19,78,17,23,26,83},{24,22,30,82,29,28,31,67,18,21,68,16,80,20,66,25,27,19,78,17,23,26,83},{0,4,3,2,11,9,1,12,15,84,13,5,6,7,10,8,14},{85},{0,4,3,46,2,11,9,86,1,12,15,13,5,6,7,10,8,14},{87},{0,4,3,46,2,11,9,88,1,12,15,13,5,6,89,7,10,8,14},{0,4,3,46,2,11,9,88,1,12,15,13,5,6,89,7,10,8,14},{0,4,3,46,2,11,9,1,12,15,13,5,6,7,10,8,14,90},{91},{92},{93},{0,4,3,46,94,2,50,11,9,47,1,12,15,13,5,32,6,7,10,8,14,35},{95},{0,4,3,2,50,11,9,47,96,1,12,15,13,5,32,6,7,10,8,14,35},{97},{98},{99},{100},{0,4,3,2,50,11,9,47,1,12,53,15,44,42,13,5,32,6,7,40,10,8,14,35,101},{0,4,3,2,50,11,9,47,1,12,53,15,44,102,103,42,13,5,32,6,7,40,10,8,14,35},{0,4,3,2,50,11,9,47,1,12,53,15,44,103,102,42,13,5,32,6,7,40,10,8,14,35},{0,4,3,2,50,11,9,47,1,12,104,53,15,44,42,13,5,32,6,7,40,10,8,14,35},{0,4,3,112,2,50,11,9,47,1,12,105,53,15,44,42,13,5,32,6,7,40,10,8,14,35},{106},{107},{108},{109},{110},{111},{0,4,3,112,2,50,11,9,47,1,12,105,53,15,44,42,13,5,32,6,7,40,10,8,14,35},{113},{114},{0,4,3,2,50,11,58,9,47,1,12,53,116,15,44,42,13,5,32,6,7,40,59,115,10,8,14,35},{0,4,3,2,50,11,58,9,47,1,12,53,116,15,44,42,13,5,32,6,7,40,59,115,10,8,14,35},{0,4,3,2,50,11,58,9,47,1,12,53,15,44,42,13,5,32,6,117,7,40,59,10,8,14,35},{118},{0,4,3,119,2,50,11,9,47,1,12,53,15,44,42,13,5,32,6,7,40,59,60,10,8,14,35},{0,4,3,121,2,50,11,9,47,1,12,53,15,44,120,42,13,5,32,6,7,40,60,10,8,14,35},{0,4,3,121,2,50,11,9,47,1,12,53,15,44,120,42,13,5,32,6,7,40,60,10,8,14,35},{0,4,3,2,50,11,9,47,1,12,53,122,15,44,120,42,13,5,32,6,7,40,60,10,8,14,35},{0,4,3,123,2,11,9,1,12,15,13,5,6,7,10,8,14,35},{0,4,3,2,11,9,1,12,124,15,13,5,6,7,10,8,14,35},{0,4,3,2,11,9,1,12,15,13,5,6,125,7,10,8,14,35},{0,4,3,130,134,2,11,9,1,12,15,131,133,13,5,126,128,6,7,132,129,127,10,8,14,35},{0,4,3,130,134,2,11,9,1,12,15,131,133,13,5,126,128,6,7,132,129,127,10,8,14,35},{0,4,3,130,134,2,11,9,1,12,15,131,133,13,5,126,128,6,7,132,129,127,10,8,14,35},{0,4,3,130,134,2,11,9,1,12,15,131,133,13,5,126,128,6,7,132,129,127,10,8,14,35},{0,4,3,130,134,2,11,9,1,12,15,131,133,13,5,126,128,6,7,132,129,127,10,8,14,35},{0,4,3,130,134,2,11,9,1,12,15,131,133,13,5,126,128,6,7,132,129,127,10,8,14,35},{0,4,3,130,134,2,11,9,1,12,15,131,133,13,5,126,128,6,7,132,129,127,10,8,14,35},{0,4,3,130,134,2,11,9,1,12,15,131,133,13,5,126,128,6,7,132,129,127,10,8,14,35},{0,4,3,130,134,2,11,9,1,12,15,131,133,13,5,126,128,6,7,132,129,127,10,8,14,35},{24,138,137,22,30,136,29,28,31,67,135,18,21,68,16,20,66,25,27,19,139,17,23,26},{24,138,137,22,30,136,29,28,31,67,135,18,21,68,16,20,66,25,27,19,139,17,23,26},{24,138,137,22,30,136,29,28,31,67,135,18,21,68,16,20,66,25,27,19,139,17,23,26},{24,138,137,22,30,136,29,28,31,67,135,18,21,68,16,20,66,25,27,19,139,17,23,26},{24,138,137,22,30,136,29,28,31,67,135,18,21,68,16,20,66,25,27,19,139,17,23,26},{0,4,3,2,50,140,11,9,47,1,12,53,15,44,120,42,13,5,32,6,7,40,60,10,8,14,35},{0,4,3,2,50,11,9,47,1,12,53,15,44,120,42,13,5,32,141,6,7,40,60,10,8,14,35},{0,4,3,2,50,11,142,9,47,1,12,53,15,44,120,42,13,5,32,6,7,40,60,10,8,14,35},{0,4,3,2,50,11,143,9,47,1,12,53,15,44,120,42,13,5,32,6,7,40,60,10,8,14,35},{144},{145},{0,4,3,146,2,11,9,47,1,12,53,15,44,120,42,13,5,32,6,7,40,60,10,8,14,35},{0,4,3,2,11,9,147,47,1,12,53,15,44,120,42,13,5,32,6,7,40,60,10,8,14,35},{0,4,3,2,50,11,9,47,148,1,12,53,15,44,42,13,5,32,6,7,40,10,8,14,35},{149},{0,4,3,2,50,11,9,47,150,1,12,53,15,44,42,13,5,32,6,7,40,10,8,14,35},{151},{152},{153},{154},{155},{0,4,3,2,50,11,9,47,1,12,53,15,44,120,42,13,5,156,32,6,7,40,60,10,8,14,35,157},{0,4,3,2,50,11,9,47,1,12,53,15,44,120,42,13,5,156,32,6,7,40,60,10,8,14,35,157},{0,4,3,2,50,11,9,47,1,12,53,15,44,120,42,13,5,158,32,6,7,40,60,10,8,14,35},{0,4,3,2,50,11,9,47,1,12,53,15,44,120,159,42,13,5,32,6,7,40,60,10,8,14,35},{0,4,3,160,162,2,50,11,9,1,12,53,15,44,120,42,13,5,6,7,40,60,10,8,14,35},{0,4,3,160,2,50,11,9,1,12,53,15,44,120,42,13,5,161,6,7,40,60,10,8,14,35},{0,4,3,160,162,2,50,11,9,1,12,53,15,44,120,42,13,5,6,7,40,60,10,8,14,35},{163},{0,4,3,160,2,50,11,9,55,1,12,164,53,15,44,120,42,13,5,6,7,40,60,10,8,14,35},{165},{0,4,3,174,2,50,11,9,56,1,12,166,53,168,15,44,120,42,13,5,6,7,40,60,10,8,14,35},{0,4,3,2,50,11,9,56,1,12,166,53,15,44,120,42,13,5,167,6,7,40,60,10,8,14,35},{0,4,3,174,2,50,11,9,56,1,12,166,53,168,15,44,120,42,13,5,6,7,40,60,10,8,14,35},{0,4,3,2,50,11,9,56,1,12,166,53,168,15,44,120,42,169,13,5,6,7,40,60,10,8,14,35},{0,4,3,2,50,11,9,56,1,12,166,53,168,15,44,120,42,13,5,170,6,7,40,60,10,8,14,35},{0,4,3,2,50,11,9,56,1,12,166,172,53,168,15,44,120,42,171,13,5,6,7,40,60,10,8,14,35},{0,4,3,2,50,11,9,56,1,12,166,172,53,168,15,44,120,42,171,13,5,6,7,40,60,10,8,14,35},{0,4,3,2,50,11,9,56,1,12,166,53,168,15,44,120,42,171,13,5,6,7,40,60,10,8,14,35,173},{0,4,3,174,2,50,11,9,56,1,12,166,53,168,15,44,120,42,13,5,6,7,40,60,10,8,14,35},{0,4,3,175,2,50,11,9,56,1,12,166,53,15,44,120,42,13,5,6,7,40,60,10,8,14,35},{0,4,3,2,50,11,9,56,1,12,166,53,15,44,120,176,42,13,5,6,7,40,60,10,8,14,35},{0,4,3,2,50,177,11,9,56,1,12,166,53,15,120,42,13,5,6,7,40,60,10,8,14,35},{0,4,3,2,50,11,9,178,56,1,12,166,53,15,120,42,13,5,6,7,40,60,10,8,14,35},{0,4,3,2,50,179,11,9,56,1,12,166,53,15,120,42,13,5,6,7,40,60,10,8,14,35},{0,4,3,2,50,11,9,180,56,1,12,166,53,15,120,42,13,5,6,7,40,60,10,8,14,35},{181},{182},{183},{0,4,3,2,50,11,9,186,190,1,12,53,15,44,120,42,187,13,5,6,185,184,7,40,60,10,8,14,35,191},{0,4,3,2,50,11,9,186,190,1,12,53,15,44,120,42,187,13,5,6,185,184,7,40,60,10,8,14,35,191},{0,4,3,2,50,11,9,186,190,1,12,53,15,44,120,42,187,13,5,6,185,184,7,40,60,10,8,14,35,191},{0,4,3,2,50,11,9,186,190,1,12,53,15,44,120,42,187,13,5,6,185,184,7,40,60,10,8,14,35,191},{0,4,3,2,50,11,9,186,1,12,53,15,44,120,42,187,13,5,6,185,184,188,7,40,60,10,8,14,35},{0,4,3,2,50,11,9,186,1,12,53,15,44,120,42,187,13,5,6,185,184,7,40,60,10,8,14,35,189},{0,4,3,2,50,11,9,186,190,1,12,53,15,44,120,42,187,13,5,6,185,184,7,40,60,10,8,14,35,191},{0,4,3,2,50,11,9,186,190,1,12,53,15,44,120,42,187,13,5,6,185,184,7,40,60,10,8,14,35,191},{0,4,3,2,50,11,9,186,193,1,12,53,15,44,120,42,187,13,5,6,185,184,7,40,60,192,10,8,14,35},{0,4,3,2,50,11,9,186,193,1,12,53,15,44,120,42,187,13,5,6,185,184,7,40,60,192,10,8,14,35},{0,4,3,2,50,11,198,9,55,1,12,53,15,44,120,42,187,13,5,6,185,194,7,40,60,10,8,14,35},{0,4,3,2,50,11,9,195,1,12,53,15,44,120,42,187,13,5,6,185,194,7,40,60,192,10,8,14,35},{0,4,3,2,50,11,9,1,12,53,15,44,120,42,187,13,5,6,185,194,196,7,40,60,10,8,14,35},{197},{0,4,3,2,50,11,198,9,55,1,12,53,15,44,120,42,187,13,5,6,185,194,7,40,60,10,8,14,35},{0,4,3,2,50,11,9,55,1,12,199,53,15,44,120,42,187,13,5,6,194,7,40,60,10,8,14,35},{0,4,3,2,50,11,202,9,55,1,12,53,15,44,120,42,13,5,6,7,40,60,10,8,14,35,200},{0,4,3,2,50,11,9,55,1,12,53,15,44,120,42,187,13,5,6,7,40,60,201,10,8,14,35,200},{0,4,3,2,50,11,202,9,55,1,12,53,15,44,120,42,13,5,6,7,40,60,10,8,14,35,200},{203},{0,4,3,2,50,11,205,9,47,1,12,53,15,44,42,13,5,32,6,7,40,10,8,14,35,204},{0,4,3,2,50,11,205,9,47,1,12,53,15,44,42,13,5,32,6,7,40,10,8,14,35,204}];
nr_cliques=206;
