projet_m2_wvcp/projet_m2_wvcp/original_wvcp_dzn/zeroin.i.3.dzn
name="zeroin.i.3";
nr_vertices=206;
nr_edges=3540;
neighborhoods=[{1,2,3,4,5,6,7,8,9,10,11,12,13,14,15,32,35,40,42,44,46,47,50,53,55,56,58,59,60,69,70,71,72,73,74,75,76,77,79,81,84,86,88,89,90,94,96,101,102,103,104,105,112,115,116,117,119,120,121,122,123,124,125,126,127,128,129,130,131,132,133,134,140,141,142,143,146,147,148,150,156,157,158,159,160,161,162,164,166,167,168,169,170,171,172,173,174,175,176,177,178,179,180,184,185,186,187,188,189,190,191,192,193,194,195,196,198,199,200,201,202,204,205,83,82,80,78,68,67,66,65,64,63,62,61,139,138,137,136,135},{0,2,3,4,5,6,7,8,9,10,11,12,13,14,15,32,35,40,42,44,46,47,50,53,55,56,58,59,60,69,70,71,72,73,74,75,76,77,79,81,84,86,88,89,90,94,96,101,102,103,104,105,112,115,116,117,119,120,121,122,123,124,125,126,127,128,129,130,131,132,133,134,140,141,142,143,146,147,148,150,156,157,158,159,160,161,162,164,166,167,168,169,170,171,172,173,174,175,176,177,178,179,180,184,185,186,187,188,189,190,191,192,193,194,195,196,198,199,200,201,202,204,205,83,82,80,78,68,67,66,65,64,63,62,61,139,138,137,136,135},{0,1,3,4,5,6,7,8,9,10,11,12,13,14,15,32,35,40,42,44,46,47,50,53,55,56,58,59,60,69,70,71,72,73,74,75,76,77,79,81,84,86,88,89,90,94,96,101,102,103,104,105,112,115,116,117,119,120,121,122,123,124,125,126,127,128,129,130,131,132,133,134,140,141,142,143,146,147,148,150,156,157,158,159,160,161,162,164,166,167,168,169,170,171,172,173,174,175,176,177,178,179,180,184,185,186,187,188,189,190,191,192,193,194,195,196,198,199,200,201,202,204,205,83,82,80,78,68,67,66,65,64,63,62,61},{0,1,2,4,5,6,7,8,9,10,11,12,13,14,15,32,35,40,42,44,46,47,50,53,55,56,58,59,60,69,70,71,72,73,74,75,76,77,79,81,84,86,88,89,90,94,96,101,102,103,104,105,112,115,116,117,119,120,121,122,123,124,125,126,127,128,129,130,131,132,133,134,140,141,142,143,146,147,148,150,156,157,158,159,160,161,162,164,166,167,168,169,170,171,172,173,174,175,176,177,178,179,180,184,185,186,187,188,189,190,191,192,193,194,195,196,198,199,200,201,202,204,205},{0,1,2,3,5,6,7,8,9,10,11,12,13,14,15,32,35,40,42,44,46,47,50,53,55,56,58,59,60,69,70,71,72,73,74,75,76,77,79,81,84,86,88,89,90,94,96,101,102,103,104,105,112,115,116,117,119,120,121,122,123,124,125,126,127,128,129,130,131,132,133,134,140,141,142,143,146,147,148,150,156,157,158,159,160,161,162,164,166,167,168,169,170,171,172,173,174,175,176,177,178,179,180,184,185,186,187,188,189,190,191,192,193,194,195,196,198,199,200,201,202,204,205,61,139},{0,1,2,3,4,6,7,8,9,10,11,12,13,14,15,32,35,40,42,44,46,47,50,53,55,56,58,59,60,69,70,71,72,73,74,75,76,77,79,81,84,86,88,89,90,94,96,101,102,103,104,105,112,115,116,117,119,120,121,122,123,124,125,126,127,128,129,130,131,132,133,134,140,141,142,143,146,147,148,150,156,157,158,159,160,161,162,164,166,167,168,169,170,171,172,173,174,175,176,177,178,179,180,184,185,186,187,188,189,190,191,192,193,194,195,196,198,199,200,201,202,204,205,62,61,138,139},{0,1,2,3,4,5,7,8,9,10,11,12,13,14,15,32,35,40,42,44,46,47,50,53,55,56,58,59,60,69,70,71,72,73,74,75,76,77,79,81,84,86,88,89,90,94,96,101,102,103,104,105,112,115,116,117,119,120,121,122,123,124,125,126,127,128,129,130,131,132,133,134,140,141,142,143,146,147,148,150,156,157,158,159,160,161,162,164,166,167,168,169,170,171,172,173,174,175,176,177,178,179,180,184,185,186,187,188,189,190,191,192,193,194,195,196,198,199,200,201,202,204,205,63,62,61,137,138,139},{0,1,2,3,4,5,6,8,9,10,11,12,13,14,15,32,35,40,42,44,46,47,50,53,55,56,58,59,60,69,70,71,72,73,74,75,76,77,79,81,84,86,88,89,90,94,96,101,102,103,104,105,112,115,116,117,119,120,121,122,123,124,125,126,127,128,129,130,131,132,133,134,140,141,142,143,146,147,148,150,156,157,158,159,160,161,162,164,166,167,168,169,170,171,172,173,174,175,176,177,178,179,180,184,185,186,187,188,189,190,191,192,193,194,195,196,198,199,200,201,202,204,205,64,63,62,61,136,137,138,139},{0,1,2,3,4,5,6,7,9,10,11,12,13,14,15,32,35,40,42,44,46,47,50,53,55,56,58,59,60,69,70,71,72,73,74,75,76,77,79,81,84,86,88,89,90,94,96,101,102,103,104,105,112,115,116,117,119,120,121,122,123,124,125,126,127,128,129,130,131,132,133,134,140,141,142,143,146,147,148,150,156,157,158,159,160,161,162,164,166,167,168,169,170,171,172,173,174,175,176,177,178,179,180,184,185,186,187,188,189,190,191,192,193,194,195,196,198,199,200,201,202,204,205,65,64,63,62,61,135,136,137,138,139},{0,1,2,3,4,5,6,7,8,10,11,12,13,14,15,32,35,40,42,44,46,47,50,53,55,56,58,59,60,69,70,71,72,73,74,75,76,77,79,81,84,86,88,89,90,94,96,101,102,103,104,105,112,115,116,117,119,120,121,122,123,124,125,126,127,128,129,130,131,132,133,134,140,141,142,143,146,147,148,150,156,157,158,159,160,161,162,164,166,167,168,169,170,171,172,173,174,175,176,177,178,179,180,184,185,186,187,188,189,190,191,192,193,194,195,196,198,199,200,201,202,204,205,66,65,64,63,62,61,135,136,137,138,139},{0,1,2,3,4,5,6,7,8,9,11,12,13,14,15,32,35,40,42,44,46,47,50,53,55,56,58,59,60,69,70,71,72,73,74,75,76,77,79,81,84,86,88,89,90,94,96,101,102,103,104,105,112,115,116,117,119,120,121,122,123,124,125,126,127,128,129,130,131,132,133,134,140,141,142,143,146,147,148,150,156,157,158,159,160,161,162,164,166,167,168,169,170,171,172,173,174,175,176,177,178,179,180,184,185,186,187,188,189,190,191,192,193,194,195,196,198,199,200,201,202,204,205,68,67,66,65,64,63,62,61,83,82,80,78},{0,1,2,3,4,5,6,7,8,9,10,12,13,14,15,32,35,40,42,44,46,47,50,53,55,56,58,59,60,69,70,71,72,73,74,75,76,77,79,81,84,86,88,89,90,94,96,101,102,103,104,105,112,115,116,117,119,120,121,122,123,124,125,126,127,128,129,130,131,132,133,134,140,141,142,143,146,147,148,150,156,157,158,159,160,161,162,164,166,167,168,169,170,171,172,173,174,175,176,177,178,179,180,184,185,186,187,188,189,190,191,192,193,194,195,196,198,199,200,201,202,204,205,78,68,67,66,65,64,63,62,61,83,82,80},{0,1,2,3,4,5,6,7,8,9,10,11,13,14,15,32,35,40,42,44,46,47,50,53,55,56,58,59,60,69,70,71,72,73,74,75,76,77,79,81,84,86,88,89,90,94,96,101,102,103,104,105,112,115,116,117,119,120,121,122,123,124,125,126,127,128,129,130,131,132,133,134,140,141,142,143,146,147,148,150,156,157,158,159,160,161,162,164,166,167,168,169,170,171,172,173,174,175,176,177,178,179,180,184,185,186,187,188,189,190,191,192,193,194,195,196,198,199,200,201,202,204,205,80,78,68,67,66,65,64,63,62,61,83,82},{0,1,2,3,4,5,6,7,8,9,10,11,12,14,15,32,35,40,42,44,46,47,50,53,55,56,58,59,60,69,70,71,72,73,74,75,76,77,79,81,84,86,88,89,90,94,96,101,102,103,104,105,112,115,116,117,119,120,121,122,123,124,125,126,127,128,129,130,131,132,133,134,140,141,142,143,146,147,148,150,156,157,158,159,160,161,162,164,166,167,168,169,170,171,172,173,174,175,176,177,178,179,180,184,185,186,187,188,189,190,191,192,193,194,195,196,198,199,200,201,202,204,205,82,80,78,68,67,66,65,64,63,62,61,83},{0,1,2,3,4,5,6,7,8,9,10,11,12,13,15,32,35,40,42,44,46,47,50,53,55,56,58,59,60,69,70,71,72,73,74,75,76,77,79,81,84,86,88,89,90,94,96,101,102,103,104,105,112,115,116,117,119,120,121,122,123,124,125,126,127,128,129,130,131,132,133,134,140,141,142,143,146,147,148,150,156,157,158,159,160,161,162,164,166,167,168,169,170,171,172,173,174,175,176,177,178,179,180,184,185,186,187,188,189,190,191,192,193,194,195,196,198,199,200,201,202,204,205,83,82,80,78,68,67,66},{0,1,2,3,4,5,6,7,8,9,10,11,12,13,14,32,35,40,42,44,46,47,50,53,55,56,58,59,60,69,70,71,72,73,74,75,76,77,79,81,84,86,88,89,90,94,96,101,102,103,104,105,112,115,116,117,119,120,121,122,123,124,125,126,127,128,129,130,131,132,133,134,140,141,142,143,146,147,148,150,156,157,158,159,160,161,162,164,166,167,168,169,170,171,172,173,174,175,176,177,178,179,180,184,185,186,187,188,189,190,191,192,193,194,195,196,198,199,200,201,202,204,205,67,66,65,64,63,62,61,83,82,80,78,68,135,136,137,138,139},{17,18,19,20,21,22,23,24,25,26,27,28,29,30,31,61,62,63,64,65,66,67,68,78,80,82,83,135,136,137,138,139,46,84,81,79,77,76,75,74,73,72,71,70,69,90,89,88,86,96,50,94,47,35,32,101,44,42,53,40,104,103,102,59,58,205,204,122,121,120,119,60,117,116,115,134,133,132,131,130,129,128,127,126,125,124,123,143,142,141,140,158,157,156,159,56,202,201,200,199,198,55,196,195,194,193,192,191,190,189,188,187,186,185,184,175,174,173,172,171,170,169,168,167,166,180,179,178,177,176,147,146,150,148,164,162,161,160,112,105},{16,18,19,20,21,22,23,24,25,26,27,28,29,30,31,61,62,63,64,65,66,67,68,78,80,82,83,135,136,137,138,139},{16,17,19,20,21,22,23,24,25,26,27,28,29,30,31,61,62,63,64,65,66,67,68,78,80,82,83,135,136,137,138,139,69,134},{16,17,18,20,21,22,23,24,25,26,27,28,29,30,31,61,62,63,64,65,66,67,68,78,80,82,83,135,136,137,138,139,70,69,133,134},{16,17,18,19,21,22,23,24,25,26,27,28,29,30,31,61,62,63,64,65,66,67,68,78,80,82,83,135,136,137,138,139,71,70,69,132,133,134},{16,17,18,19,20,22,23,24,25,26,27,28,29,30,31,61,62,63,64,65,66,67,68,78,80,82,83,135,136,137,138,139,72,71,70,69,131,132,133,134},{16,17,18,19,20,21,23,24,25,26,27,28,29,30,31,61,62,63,64,65,66,67,68,78,80,82,83,135,136,137,138,139,73,72,71,70,69,130,131,132,133,134},{16,17,18,19,20,21,22,24,25,26,27,28,29,30,31,61,62,63,64,65,66,67,68,78,80,82,83,135,136,137,138,139,74,73,72,71,70,69,129,130,131,132,133,134},{16,17,18,19,20,21,22,23,25,26,27,28,29,30,31,61,62,63,64,65,66,67,68,78,80,82,83,135,136,137,138,139,75,74,73,72,71,70,69,128,129,130,131,132,133,134},{16,17,18,19,20,21,22,23,24,26,27,28,29,30,31,61,62,63,64,65,66,67,68,78,80,82,83,135,136,137,138,139,76,75,74,73,72,71,70,69,127,128,129,130,131,132,133,134},{16,17,18,19,20,21,22,23,24,25,27,28,29,30,31,61,62,63,64,65,66,67,68,78,80,82,83,135,136,137,138,139,96,94,47,35,32,46,101,44,42,53,40,104,103,102,59,58,205,204,122,121,120,119,60,117,116,115,127,128,129,130,131,132,133,134,126,143,142,141,140,158,157,156,159,56,202,201,200,199,198,55,196,195,194,193,192,191,190,189,188,187,186,185,184,175,174,173,172,171,170,169,168,167,166,180,179,178,177,176,147,146,150,148,164,162,161,160,112,50,105},{16,17,18,19,20,21,22,23,24,25,26,28,29,30,31,61,62,63,64,65,66,67,68,78,80,82,83,135,136,137,138,139,47,35,32,46,44,42,40,53},{16,17,18,19,20,21,22,23,24,25,26,27,29,30,31,61,62,63,64,65,66,67,68,78,80,82,83,135,136,137,138,139,47,35,32,46,44,42,40,53},{16,17,18,19,20,21,22,23,24,25,26,27,28,30,31,61,62,63,64,65,66,67,68,78,80,82,83,135,136,137,138,139,47,35,32,46,44,42,40,53},{16,17,18,19,20,21,22,23,24,25,26,27,28,29,31,61,62,63,64,65,66,67,68,78,80,82,83,135,136,137,138,139,47,35,32,46,44,42,40,53},{16,17,18,19,20,21,22,23,24,25,26,27,28,29,30,61,62,63,64,65,66,67,68,78,80,82,83,135,136,137,138,139,47,35,32,46,44,42,40,53},{0,1,2,3,4,5,6,7,8,9,10,11,12,13,14,15,16,26,27,28,29,30,31,96,50,94,47,35,46,101,44,42,53,104,103,102,59,58,205,204,122,121,120,119,60,117,116,115,143,142,141,140,158,157,156,159,147,146,40,150,148,112,105},{},{},{0,1,2,3,4,5,6,7,8,9,10,11,12,13,14,15,16,26,27,28,29,30,31,32,96,50,94,47,46,101,44,42,53,40,104,103,102,59,58,205,204,122,121,120,119,60,117,116,115,134,133,132,131,130,129,128,127,126,125,124,123,143,142,141,140,158,157,156,159,56,202,201,200,199,198,55,196,195,194,193,192,191,190,189,188,187,186,185,184,175,174,173,172,171,170,169,168,167,166,180,179,178,177,176,147,146,150,148,164,162,161,160,112,105},{},{},{},{},{0,1,2,3,4,5,6,7,8,9,10,11,12,13,14,15,16,26,27,28,29,30,31,32,35,101,44,42,53,50,47,104,103,102,59,58,205,204,122,121,120,119,60,117,116,115,143,142,141,140,158,157,156,159,56,202,201,200,199,198,55,196,195,194,193,192,191,190,189,188,187,186,185,184,175,174,173,172,171,170,169,168,167,166,180,179,178,177,176,147,146,150,148,164,162,161,160,112,105},{},{0,1,2,3,4,5,6,7,8,9,10,11,12,13,14,15,16,26,27,28,29,30,31,32,35,40,101,53,50,47,104,103,102,59,58,205,204,122,121,120,119,60,117,116,115,143,142,141,140,158,157,156,159,56,202,201,200,199,198,55,196,195,194,193,192,191,190,189,188,187,186,185,184,175,174,173,172,171,170,169,168,167,166,180,179,178,177,176,44,147,146,150,148,164,162,161,160,112,105},{},{0,1,2,3,4,5,6,7,8,9,10,11,12,13,14,15,16,26,27,28,29,30,31,32,35,40,42,101,53,50,47,104,103,102,59,58,205,204,122,121,120,119,60,117,116,115,143,142,141,140,158,157,156,159,56,202,201,200,199,198,55,196,195,194,193,192,191,190,189,188,187,186,185,184,175,174,173,172,171,170,169,168,167,166,176,147,146,150,148,164,162,161,160,112,105},{},{0,1,2,3,4,5,6,7,8,9,10,11,12,13,14,15,16,26,27,28,29,30,31,32,35,90,89,88,86,50,94,47},{0,1,2,3,4,5,6,7,8,9,10,11,12,13,14,15,16,26,27,28,29,30,31,32,35,40,42,44,46,96,50,94,101,104,103,102,59,58,205,204,122,121,120,119,60,117,116,115,143,142,141,140,158,157,156,159,186,185,184,147,146,53,150,148,112,105},{},{},{0,1,2,3,4,5,6,7,8,9,10,11,12,13,14,15,16,26,32,35,40,42,44,46,47,96,94,101,53,104,103,102,59,58,205,204,122,121,120,119,60,117,116,115,143,142,141,140,158,157,156,159,56,202,201,200,199,198,55,196,195,194,193,192,191,190,189,188,187,186,185,184,175,174,173,172,171,170,169,168,167,166,180,179,178,177,176,150,148,164,162,161,160,112,105},{},{},{0,1,2,3,4,5,6,7,8,9,10,11,12,13,14,15,16,26,27,28,29,30,31,32,35,40,42,44,47,50,101,104,103,102,59,58,205,204,122,121,120,119,60,117,116,115,143,142,141,140,158,157,156,159,56,202,201,200,199,198,55,196,195,194,193,192,191,190,189,188,187,186,185,184,175,174,173,172,171,170,169,168,167,166,180,179,178,177,176,147,146,150,148,164,162,161,160,112,105},{},{0,1,2,3,4,5,6,7,8,9,10,11,12,13,14,15,16,26,35,40,42,44,50,53,56,202,201,200,199,198,185,194,187,60,120,164,160},{0,1,2,3,4,5,6,7,8,9,10,11,12,13,14,15,16,26,35,40,42,44,50,53,55,120,60,175,174,173,172,171,170,169,168,167,166,180,179,178,177,176},{},{0,1,2,3,4,5,6,7,8,9,10,11,12,13,14,15,16,26,32,35,40,42,44,47,50,53,59,117,116,115},{0,1,2,3,4,5,6,7,8,9,10,11,12,13,14,15,16,26,32,35,40,42,44,47,50,53,58,119,60,117,116,115},{0,1,2,3,4,5,6,7,8,9,10,11,12,13,14,15,16,26,32,35,40,42,44,47,50,53,55,56,59,122,121,120,119,143,142,141,140,158,157,156,159,202,201,200,199,198,196,195,194,193,192,191,190,189,188,187,186,185,184,175,174,173,172,171,170,169,168,167,166,180,179,178,177,176,147,146,164,162,161,160},{0,1,2,4,5,6,7,8,9,10,11,12,13,15,16,17,18,19,20,21,22,23,24,25,26,27,28,29,30,31},{0,1,2,5,6,7,8,9,10,11,12,13,15,16,17,18,19,20,21,22,23,24,25,26,27,28,29,30,31},{0,1,2,6,7,8,9,10,11,12,13,15,16,17,18,19,20,21,22,23,24,25,26,27,28,29,30,31},{0,1,2,7,8,9,10,11,12,13,15,16,17,18,19,20,21,22,23,24,25,26,27,28,29,30,31},{0,1,2,8,9,10,11,12,13,15,16,17,18,19,20,21,22,23,24,25,26,27,28,29,30,31},{0,1,2,9,10,11,12,13,14,15,16,17,18,19,20,21,22,23,24,25,26,27,28,29,30,31,83,82,80,78,68,67,139,138,137,136,135},{0,1,2,10,11,12,13,14,15,16,17,18,19,20,21,22,23,24,25,26,27,28,29,30,31,66,83,82,80,78,68,139,138,137,136,135},{0,1,2,10,11,12,13,14,15,16,17,18,19,20,21,22,23,24,25,26,27,28,29,30,31,66,67,83,82,80,78,139,138,137,136,135},{0,1,2,3,4,5,6,7,8,9,10,11,12,13,14,15,16,18,19,20,21,22,23,24,25},{0,1,2,3,4,5,6,7,8,9,10,11,12,13,14,15,16,19,20,21,22,23,24,25},{0,1,2,3,4,5,6,7,8,9,10,11,12,13,14,15,16,20,21,22,23,24,25},{0,1,2,3,4,5,6,7,8,9,10,11,12,13,14,15,16,21,22,23,24,25},{0,1,2,3,4,5,6,7,8,9,10,11,12,13,14,15,16,22,23,24,25},{0,1,2,3,4,5,6,7,8,9,10,11,12,13,14,15,16,23,24,25},{0,1,2,3,4,5,6,7,8,9,10,11,12,13,14,15,16,24,25},{0,1,2,3,4,5,6,7,8,9,10,11,12,13,14,15,16,25},{0,1,2,3,4,5,6,7,8,9,10,11,12,13,14,15,16},{0,1,2,10,11,12,13,14,15,16,17,18,19,20,21,22,23,24,25,26,27,28,29,30,31,66,67,68,83,82,80},{0,1,2,3,4,5,6,7,8,9,10,11,12,13,14,15,16},{0,1,2,10,11,12,13,14,15,16,17,18,19,20,21,22,23,24,25,26,27,28,29,30,31,66,67,68,78,83,82},{0,1,2,3,4,5,6,7,8,9,10,11,12,13,14,15,16},{0,1,2,10,11,12,13,14,15,16,17,18,19,20,21,22,23,24,25,26,27,28,29,30,31,66,67,68,78,80,83},{0,1,2,10,11,12,13,14,15,16,17,18,19,20,21,22,23,24,25,26,27,28,29,30,31,66,67,68,78,80,82},{0,1,2,3,4,5,6,7,8,9,10,11,12,13,14,15,16},{},{0,1,2,3,4,5,6,7,8,9,10,11,12,13,14,15,16,46},{},{0,1,2,3,4,5,6,7,8,9,10,11,12,13,14,15,16,46,89},{0,1,2,3,4,5,6,7,8,9,10,11,12,13,14,15,16,46,88},{0,1,2,3,4,5,6,7,8,9,10,11,12,13,14,15,16,46},{},{},{},{0,1,2,3,4,5,6,7,8,9,10,11,12,13,14,15,16,26,32,35,46,47,50},{},{0,1,2,3,4,5,6,7,8,9,10,11,12,13,14,15,16,26,32,35,47,50},{},{},{},{},{0,1,2,3,4,5,6,7,8,9,10,11,12,13,14,15,16,26,32,35,40,42,44,47,50,53},{0,1,2,3,4,5,6,7,8,9,10,11,12,13,14,15,16,26,32,35,40,42,44,47,50,53,103},{0,1,2,3,4,5,6,7,8,9,10,11,12,13,14,15,16,26,32,35,40,42,44,47,50,53,102},{0,1,2,3,4,5,6,7,8,9,10,11,12,13,14,15,16,26,32,35,40,42,44,47,50,53},{0,1,2,3,4,5,6,7,8,9,10,11,12,13,14,15,16,26,32,35,40,42,44,47,50,53,112},{},{},{},{},{},{},{0,1,2,3,4,5,6,7,8,9,10,11,12,13,14,15,16,26,32,35,40,42,44,47,50,53,105},{},{},{0,1,2,3,4,5,6,7,8,9,10,11,12,13,14,15,16,26,32,35,40,42,44,47,50,53,58,59,116},{0,1,2,3,4,5,6,7,8,9,10,11,12,13,14,15,16,26,32,35,40,42,44,47,50,53,58,59,115},{0,1,2,3,4,5,6,7,8,9,10,11,12,13,14,15,16,26,32,35,40,42,44,47,50,53,58,59},{},{0,1,2,3,4,5,6,7,8,9,10,11,12,13,14,15,16,26,32,35,40,42,44,47,50,53,59,60},{0,1,2,3,4,5,6,7,8,9,10,11,12,13,14,15,16,26,32,35,40,42,44,47,50,53,55,56,60,122,121,143,142,141,140,158,157,156,159,202,201,200,199,198,196,195,194,193,192,191,190,189,188,187,186,185,184,175,174,173,172,171,170,169,168,167,166,180,179,178,177,176,147,146,164,162,161,160},{0,1,2,3,4,5,6,7,8,9,10,11,12,13,14,15,16,26,32,35,40,42,44,47,50,53,60,120},{0,1,2,3,4,5,6,7,8,9,10,11,12,13,14,15,16,26,32,35,40,42,44,47,50,53,60,120},{0,1,2,3,4,5,6,7,8,9,10,11,12,13,14,15,16,35},{0,1,2,3,4,5,6,7,8,9,10,11,12,13,14,15,16,35},{0,1,2,3,4,5,6,7,8,9,10,11,12,13,14,15,16,35},{0,1,2,3,4,5,6,7,8,9,10,11,12,13,14,15,16,26,35,134,133,132,131,130,129,128,127},{0,1,2,3,4,5,6,7,8,9,10,11,12,13,14,15,16,25,26,35,126,134,133,132,131,130,129,128},{0,1,2,3,4,5,6,7,8,9,10,11,12,13,14,15,16,24,25,26,35,126,127,134,133,132,131,130,129},{0,1,2,3,4,5,6,7,8,9,10,11,12,13,14,15,16,23,24,25,26,35,126,127,128,134,133,132,131,130},{0,1,2,3,4,5,6,7,8,9,10,11,12,13,14,15,16,22,23,24,25,26,35,126,127,128,129,134,133,132,131},{0,1,2,3,4,5,6,7,8,9,10,11,12,13,14,15,16,21,22,23,24,25,26,35,126,127,128,129,130,134,133,132},{0,1,2,3,4,5,6,7,8,9,10,11,12,13,14,15,16,20,21,22,23,24,25,26,35,126,127,128,129,130,131,134,133},{0,1,2,3,4,5,6,7,8,9,10,11,12,13,14,15,16,19,20,21,22,23,24,25,26,35,126,127,128,129,130,131,132,134},{0,1,2,3,4,5,6,7,8,9,10,11,12,13,14,15,16,18,19,20,21,22,23,24,25,26,35,126,127,128,129,130,131,132,133},{0,1,8,9,15,16,17,18,19,20,21,22,23,24,25,26,27,28,29,30,31,66,67,68,139,138,137,136},{0,1,7,8,9,15,16,17,18,19,20,21,22,23,24,25,26,27,28,29,30,31,66,67,68,135,139,138,137},{0,1,6,7,8,9,15,16,17,18,19,20,21,22,23,24,25,26,27,28,29,30,31,66,67,68,135,136,139,138},{0,1,5,6,7,8,9,15,16,17,18,19,20,21,22,23,24,25,26,27,28,29,30,31,66,67,68,135,136,137,139},{0,1,4,5,6,7,8,9,15,16,17,18,19,20,21,22,23,24,25,26,27,28,29,30,31,66,67,68,135,136,137,138},{0,1,2,3,4,5,6,7,8,9,10,11,12,13,14,15,16,26,32,35,40,42,44,47,50,53,60,120},{0,1,2,3,4,5,6,7,8,9,10,11,12,13,14,15,16,26,32,35,40,42,44,47,50,53,60,120},{0,1,2,3,4,5,6,7,8,9,10,11,12,13,14,15,16,26,32,35,40,42,44,47,50,53,60,120},{0,1,2,3,4,5,6,7,8,9,10,11,12,13,14,15,16,26,32,35,40,42,44,47,50,53,60,120},{},{},{0,1,2,3,4,5,6,7,8,9,10,11,12,13,14,15,16,26,32,35,40,42,44,47,53,60,120},{0,1,2,3,4,5,6,7,8,9,10,11,12,13,14,15,16,26,32,35,40,42,44,47,53,60,120},{0,1,2,3,4,5,6,7,8,9,10,11,12,13,14,15,16,26,32,35,40,42,44,47,50,53},{},{0,1,2,3,4,5,6,7,8,9,10,11,12,13,14,15,16,26,32,35,40,42,44,47,50,53},{},{},{},{},{},{0,1,2,3,4,5,6,7,8,9,10,11,12,13,14,15,16,26,32,35,40,42,44,47,50,53,60,120,157},{0,1,2,3,4,5,6,7,8,9,10,11,12,13,14,15,16,26,32,35,40,42,44,47,50,53,60,120,156},{0,1,2,3,4,5,6,7,8,9,10,11,12,13,14,15,16,26,32,35,40,42,44,47,50,53,60,120},{0,1,2,3,4,5,6,7,8,9,10,11,12,13,14,15,16,26,32,35,40,42,44,47,50,53,60,120},{0,1,2,3,4,5,6,7,8,9,10,11,12,13,14,15,16,26,35,40,42,44,50,53,55,60,120,164,162,161},{0,1,2,3,4,5,6,7,8,9,10,11,12,13,14,15,16,26,35,40,42,44,50,53,60,120,160},{0,1,2,3,4,5,6,7,8,9,10,11,12,13,14,15,16,26,35,40,42,44,50,53,60,120,160},{},{0,1,2,3,4,5,6,7,8,9,10,11,12,13,14,15,16,26,35,40,42,44,50,53,55,60,120,160},{},{0,1,2,3,4,5,6,7,8,9,10,11,12,13,14,15,16,26,35,40,42,44,50,53,56,60,120,175,174,173,172,171,170,169,168,167,180,179,178,177,176},{0,1,2,3,4,5,6,7,8,9,10,11,12,13,14,15,16,26,35,40,42,44,50,53,56,60,120,166},{0,1,2,3,4,5,6,7,8,9,10,11,12,13,14,15,16,26,35,40,42,44,50,53,56,60,120,166,174,173,172,171,170,169},{0,1,2,3,4,5,6,7,8,9,10,11,12,13,14,15,16,26,35,40,42,44,50,53,56,60,120,166,168},{0,1,2,3,4,5,6,7,8,9,10,11,12,13,14,15,16,26,35,40,42,44,50,53,56,60,120,166,168},{0,1,2,3,4,5,6,7,8,9,10,11,12,13,14,15,16,26,35,40,42,44,50,53,56,60,120,166,168,173,172},{0,1,2,3,4,5,6,7,8,9,10,11,12,13,14,15,16,26,35,40,42,44,50,53,56,60,120,166,168,171},{0,1,2,3,4,5,6,7,8,9,10,11,12,13,14,15,16,26,35,40,42,44,50,53,56,60,120,166,168,171},{0,1,2,3,4,5,6,7,8,9,10,11,12,13,14,15,16,26,35,40,42,44,50,53,56,60,120,166,168},{0,1,2,3,4,5,6,7,8,9,10,11,12,13,14,15,16,26,35,40,42,44,50,53,56,60,120,166},{0,1,2,3,4,5,6,7,8,9,10,11,12,13,14,15,16,26,35,40,42,44,50,53,56,60,120,166},{0,1,2,3,4,5,6,7,8,9,10,11,12,13,14,15,16,26,35,40,42,50,53,56,60,120,166},{0,1,2,3,4,5,6,7,8,9,10,11,12,13,14,15,16,26,35,40,42,50,53,56,60,120,166},{0,1,2,3,4,5,6,7,8,9,10,11,12,13,14,15,16,26,35,40,42,50,53,56,60,120,166},{0,1,2,3,4,5,6,7,8,9,10,11,12,13,14,15,16,26,35,40,42,50,53,56,60,120,166},{},{},{},{0,1,2,3,4,5,6,7,8,9,10,11,12,13,14,15,16,26,35,40,42,44,47,50,53,60,120,194,193,192,191,190,189,188,187,186,185},{0,1,2,3,4,5,6,7,8,9,10,11,12,13,14,15,16,26,35,40,42,44,47,50,53,55,60,120,184,198,196,195,194,193,192,191,190,189,188,187,186},{0,1,2,3,4,5,6,7,8,9,10,11,12,13,14,15,16,26,35,40,42,44,47,50,53,60,120,184,185,193,192,191,190,189,188,187},{0,1,2,3,4,5,6,7,8,9,10,11,12,13,14,15,16,26,35,40,42,44,50,53,55,60,120,184,185,186,201,200,199,198,196,195,194,193,192,191,190,189,188},{0,1,2,3,4,5,6,7,8,9,10,11,12,13,14,15,16,26,35,40,42,44,50,53,60,120,184,185,186,187},{0,1,2,3,4,5,6,7,8,9,10,11,12,13,14,15,16,26,35,40,42,44,50,53,60,120,184,185,186,187},{0,1,2,3,4,5,6,7,8,9,10,11,12,13,14,15,16,26,35,40,42,44,50,53,60,120,184,185,186,187,191},{0,1,2,3,4,5,6,7,8,9,10,11,12,13,14,15,16,26,35,40,42,44,50,53,60,120,184,185,186,187,190},{0,1,2,3,4,5,6,7,8,9,10,11,12,13,14,15,16,26,35,40,42,44,50,53,60,120,184,185,186,187,195,194,193},{0,1,2,3,4,5,6,7,8,9,10,11,12,13,14,15,16,26,35,40,42,44,50,53,60,120,184,185,186,187,192},{0,1,2,3,4,5,6,7,8,9,10,11,12,13,14,15,16,26,35,40,42,44,50,53,55,60,120,184,185,187,192,199,198,196,195},{0,1,2,3,4,5,6,7,8,9,10,11,12,13,14,15,16,26,35,40,42,44,50,53,60,120,185,187,192,194},{0,1,2,3,4,5,6,7,8,9,10,11,12,13,14,15,16,26,35,40,42,44,50,53,60,120,185,187,194},{},{0,1,2,3,4,5,6,7,8,9,10,11,12,13,14,15,16,26,35,40,42,44,50,53,55,60,120,185,187,194},{0,1,2,3,4,5,6,7,8,9,10,11,12,13,14,15,16,26,35,40,42,44,50,53,55,60,120,187,194},{0,1,2,3,4,5,6,7,8,9,10,11,12,13,14,15,16,26,35,40,42,44,50,53,55,60,120,187,202,201},{0,1,2,3,4,5,6,7,8,9,10,11,12,13,14,15,16,26,35,40,42,44,50,53,55,60,120,187,200},{0,1,2,3,4,5,6,7,8,9,10,11,12,13,14,15,16,26,35,40,42,44,50,53,55,60,120,200},{},{0,1,2,3,4,5,6,7,8,9,10,11,12,13,14,15,16,26,32,35,40,42,44,47,50,53,205},{0,1,2,3,4,5,6,7,8,9,10,11,12,13,14,15,16,26,32,35,40,42,44,47,50,53,204}];
weights=[19,11,17,19,19,7,5,4,2,14,2,16,11,7,2,9,8,3,10,5,6,9,16,2,17,5,1,5,12,14,16,12,6,10,8,2,13,9,2,14,4,3,8,14,9,9,19,13,11,9,17,13,14,10,11,12,12,8,16,4,3,9,15,5,18,19,6,11,9,7,6,12,6,13,3,11,18,2,4,7,7,18,16,1,8,5,12,19,12,5,1,14,13,12,18,8,12,1,19,1,7,2,9,9,11,11,19,6,9,4,9,15,18,6,15,3,10,5,3,18,9,19,10,19,11,5,7,3,6,3,19,9,4,8,18,11,15,17,17,4,17,6,15,15,8,8,18,14,12,17,13,17,16,3,13,7,7,1,7,9,19,6,18,4,11,13,11,6,10,8,7,8,11,2,19,18,9,17,13,17,14,3,15,10,5,5,14,8,5,1,14,2,3,12,5,13,5,12,16,11,1,3,15,11,1,15];
